! HF STO-3G TightSCF

%output
  Print[P_MOs] 1
end

* xyz 0 1
O   0.000000   0.000000   0.117176
H   0.000000   0.757001  -0.468704
H   0.000000  -0.757001  -0.468704
*
